NAME : ManP-3_2
COMMENT : Pilot. 5 postmen. Max route 2941.15=4999.955m
TYPE : TSP
DIMENSION : 4
VEHICLES : 5
SCALE : 1000
DISTANCE : 4999.955
EDGE_WEIGHT_TYPE : EXPLICIT
EDGE_WEIGHT_FORMAT : UPPER_ROW
EDGE_WEIGHT_SECTION
558.441
790.045
1028.830

394.702
1572.609

1810.464

DEPOT_SECTION
1
-1
EOF
